(set-info :Origin "This instance was generated by: BanditFuzz-- an RL fuzzer for SMT solvers" )
(set-info :Author "Joe Scott, Fed Mora, Vijay Ganesh" )
(set-info :Contact "Joe Scott, joseph.scott@uwaterloo.ca")
(set-logic QF_BV)
(declare-const bool_0 Bool)
(declare-const bool_1 Bool)
(declare-const bool_2 Bool)
(declare-const bool_3 Bool)
(declare-const bool_4 Bool)
(declare-const bv_0 (_ BitVec 32))
(declare-const bv_1 (_ BitVec 32))
(declare-const bv_2 (_ BitVec 32))
(declare-const bv_3 (_ BitVec 32))
(declare-const bv_4 (_ BitVec 32))
(assert (bvsle (bvxnor (bvnor #xef37e4d4  bv_4) (bvxnor bv_0 bv_3)) (bvadd (bvmul bv_4 bv_0) (bvxor #xb47229e4  #x1c145ee1 ))))
(assert (not (bvslt (bvor bv_1 #xf9177980 ) (bvudiv #xecd4257e  bv_2))))
(assert (and (bvule (bvor #x0012da6b  bv_1) (bvsmod bv_2 bv_1)) (bvult (bvudiv bv_4 bv_4) (bvashr bv_2 #x9a219a0b ))))
(assert (bvsge (bvudiv (bvnor bv_0 bv_3) (bvadd bv_0 #x72ad00bc )) (bvnand (bvadd #xee6851bf  #x77214047 ) (bvxor #x32e9c400  bv_0))))
(assert (bvslt (bvsdiv (bvsdiv #xb8bcbcc2  #x3732c9a8 ) (bvnor #x70963d23  #xaefee0dd )) (bvand (bvnor bv_0 #x5ddf6e9a ) (bvadd bv_3 bv_3))))
(check-sat)
(exit)
